param P_POP := 300.000000;

param: S_SI: P_REP_CASES :=
  1  1.000000
  2  2.000000
  3  4.000000
  4  8.000000
  5  15.000000
  6  27.000000
  7  44.000000
  8  58.000000
  9  55.000000
  10  32.000000
  11  12.000000
  12  3.000000
  13  1.000000
  14  0.000000
  15  0.000000
  16  0.000000
  17  0.000000
  18  0.000000
  19  0.000000
  20  0.000000
  21  0.000000
  22  0.000000
  23  0.000000
  24  0.000000
  25  0.000000
  26  0.000000
;
